# Solution for model MIP
# Objective value = -3.3352203853291593e+02
B0(16) 1
B1(16) 1
B2(16) 1
B3(16) 1
B4(16) 1
B5(16) 1
B6(16) 1
B7(16) 1
B8(16) 1
B9(16) 1
B10(16) 1
B11(16) 1
B12(16) 0
B13(16) 1
B14(16) 0
B15(16) 1
B16(16) 1
B17(16) 0
B18(16) 0
B19(16) 0
B20(16) 1
B21(16) 0
B22(16) 0
B23(16) 0
B24(16) 0
B25(16) 1
B26(16) 1
B27(16) 1
B28(16) 1
B29(16) 1
B30(16) 0
B31(16) 1
B32(16) 1
B33(16) 0
B34(16) 1
B35(16) 1
B36(16) 1
B37(16) 1
B38(16) 1
B39(16) 1
B40(16) 1
B41(16) 0
B42(16) 1
B43(16) 1
B44(16) 0
B45(16) 0
B46(16) 1
B47(16) 0
B48(16) 0
B49(16) 0
C50(30) -2.4620307802751461e+02
C51(1) 1.2019095487260345e-01
C52(1) 8.8088550517075093e-01
C53(1) 1.2019095487260345e-01
C54(1) 8.8088550517075093e-01
C55(1) 1.2019095487260345e-01
C56(1) 8.8088550517075093e-01
C57(1) 1.2019095487260345e-01
C58(1) 8.8088550517075093e-01
C59(1) 1.2019095487260345e-01
C60(1) 8.8088550517075093e-01
C61(1) 1.2019095487260345e-01
C62(1) 8.8088550517075093e-01
C63(1) 1.2019095487260345e-01
C64(1) 8.8088550517075093e-01
C65(1) 1.2019095487260345e-01
C66(1) 8.8088550517075093e-01
C67(1) 1.2019095487260345e-01
C68(1) 8.8088550517075093e-01
C69(2) 9.3079198145376341e-01
C70(2) 8.5359819966411166e-01
C71(2) 9.2842127816190967e-01
C72(2) 8.3319574659382467e-01
C73(2) 9.1528432356591027e-01
C74(2) 8.7230130807701522e-01
C75(2) 8.2661755068484877e-01
C76(2) 8.5165426875292027e-01
C77(2) 6.2661795577267831e-01
C78(2) 8.7174554676785054e-01
C79(2) 6.5994762435463994e-01
C80(2) 6.2583118840803253e-01
C81(2) 8.3319574659382489e-01
C82(2) 8.3319574659382478e-01
C83(2) 8.7230130807701511e-01
C84(2) 8.7230130807701534e-01
C85(2) 8.2661755068484855e-01
C86(2) 8.2661755068484899e-01
C87(2) 5.7985822862198877e-01
C88(2) 5.7985822862198877e-01
C89(2) 6.2583118840803242e-01
C90(2) 6.2583118840803253e-01
C91(2) 8.3319574659382478e-01
C92(2) 8.3319574659382467e-01
C93(2) 8.7230130807701522e-01
C94(2) 8.7230130807701556e-01
C95(2) 8.2661755068484888e-01
C96(2) 8.2661755068484877e-01
C97(2) 8.3999794504950942e-01
C98(2) 6.5363139526817970e-01
C99(1) 1.2019095487260345e-01
C100(1) 8.8088550517075093e-01
C101(3) 1
C102(3) 1
C103(3) 1
C104(3) 1
C105(3) 1
C106(3) 0
C107(3) 0
C108(3) 0
C109(3) 0
C110(3) 0
C111(3) 0
C112(3) 0
C113(3) 0
C114(3) 0
C115(3) 0
C116(3) 0
C117(3) 0
C118(3) 0
C119(3) 0
C120(3) 0
C121(3) 0
C122(3) 0
C123(3) 0
C124(3) 0
C125(3) 0
C126(3) 0
C127(3) 0
C128(3) 0
C129(3) 0
C130(3) 0
C131(3) 0
C132(3) 0
C133(3) 0
C134(3) 0
C135(3) 0
C136(3) 0
C137(3) 0
C138(3) 0
C139(3) 0
C140(3) 0
C141(3) 0
C142(3) 0
C143(3) 0
C144(3) 0
C145(3) 0
C146(3) 0
C147(3) 0
C148(3) 0
C149(3) 0
C150(3) 0
C151(3) 0
C152(3) 0
C153(3) 0
C154(3) 0
C155(3) 0
C156(3) 0
C157(3) 0
C158(3) 0
C159(3) 0
C160(3) 0
C161(3) 0
C162(3) 0
C163(3) 0
C164(3) 0
C165(3) 0
C166(3) 0
C167(3) 0
C168(3) 0
C169(3) 0
C170(3) 0
C171(3) 0
C172(3) 0
C173(3) 0
C174(3) 0
C175(3) 0
C176(3) 0
C177(3) 0
C178(3) 0
C179(3) 0
C180(3) 0
C181(3) 0
C182(3) 0
C183(3) 0
C184(3) 0
C185(3) 0
C186(3) 0
C187(3) 0
C188(3) 0
C189(3) 0
C190(3) 0
C191(3) 0
C192(3) 0
C193(3) 0
C194(3) 0
C195(3) 0
C196(3) 0
C197(3) 0
C198(3) 0
C199(3) 0
C200(3) 0
C201(3) 0
C202(3) 0
C203(3) 0
C204(3) 0
C205(3) 0
C206(3) 0
C207(3) 0
C208(3) 0
C209(3) 0
C210(3) 0
C211(3) 0
C212(3) 0
C213(3) 0
C214(3) 0
C215(3) 0
C216(3) 0
C217(3) 0
C218(3) 0
C219(3) 0
C220(3) 0
C221(3) 0
C222(3) 0
C223(3) 0
C224(3) 0
C225(3) 0
C226(3) 1
C227(3) 1
C228(3) 1
C229(3) 1
C230(4) 0
C231(3) 0
C232(3) 0
C233(3) 0
C234(3) 0
C235(4) 0
C236(3) 0
C237(3) 0
C238(3) 0
C239(3) 0
C240(4) 0
C241(3) 0
C242(3) 0
C243(3) 0
C244(3) 0
C245(4) 0
C246(3) 0
C247(3) 0
C248(3) 0
C249(3) 0
C250(4) 1
C251(3) 0
C252(3) 0
C253(3) 0
C254(3) 0
C255(4) 0
C256(3) 0
C257(3) 0
C258(3) 0
C259(3) 0
C260(4) 0
C261(3) 0
C262(3) 0
C263(3) 0
C264(3) 0
C265(4) 0
C266(3) 0
C267(3) 0
C268(3) 0
C269(3) 0
C270(4) 0
C271(3) 0
C272(3) 0
C273(3) 0
C274(3) 0
C275(4) 0
C276(3) 0
C277(3) 0
C278(3) 0
C279(3) 0
C280(4) 0
C281(3) 0
C282(3) 0
C283(3) 0
C284(3) 0
C285(4) 0
C286(3) 0
C287(3) 0
C288(3) 0
C289(3) 0
C290(4) 0
C291(3) 0
C292(3) 0
C293(3) 0
C294(3) 0
C295(4) 0
C296(3) 0
C297(3) 0
C298(3) 0
C299(3) 0
C300(4) 0
C301(3) 0
C302(3) 0
C303(3) 0
C304(3) 0
C305(4) 0
C306(3) 0
C307(3) 0
C308(3) 0
C309(3) 0
C310(4) 0
C311(3) 0
C312(3) 0
C313(3) 0
C314(3) 0
C315(4) 0
C316(3) 0
C317(3) 0
C318(3) 0
C319(3) 0
C320(4) 0
C321(3) 0
C322(3) 0
C323(3) 0
C324(3) 0
C325(4) 0
C326(3) 0
C327(3) 0
C328(3) 0
C329(3) 0
C330(4) 0
C331(3) 0
C332(3) 0
C333(3) 0
C334(3) 0
C335(4) 0
C336(3) 0
C337(3) 0
C338(3) 0
C339(3) 0
C340(4) 0
C341(3) 0
C342(3) 0
C343(3) 0
C344(3) 0
C345(4) 0
C346(3) 0
C347(3) 0
C348(3) 0
C349(3) 0
C350(4) 0
C351(4) 0
C352(4) 0
C353(4) 0
C354(4) 0
C355(4) 0
C356(4) 0
C357(4) 0
C358(4) 1.6263056570008624e-01
C359(4) 1.8358311924235290e-01
C360(4) 1.9947660424634836e-01
C361(4) 3.6707408013430962e-02
C362(4) 4.6618408248198018e-02
C363(4) 0
C364(4) 0
C365(4) 3.0052339575365167e-01
C366(4) 0
C367(4) 0
C368(4) 0
C369(4) 0
C370(4) 0
C371(4) 4.6329259198656902e-01
C372(4) 0.5
C373(4) 0.5
C374(4) 0
C375(4) 0
C376(4) 0
C377(4) 0
C378(4) 0
C379(4) 0
C380(4) 0
C381(4) 0
C382(4) 0
C383(4) 0
C384(4) 0
C385(4) 0
C386(4) 0
C387(4) 0
C388(4) 0
C389(4) 0
C390(4) 0
C391(4) 0
C392(4) 0
C393(4) 0
C394(4) 0
C395(4) 0
C396(4) 0
C397(4) 0
C398(4) 0
C399(4) 0.5
C400(4) 0
C401(4) 0
C402(4) 0
C403(4) 0
C404(4) 0
C405(4) 0
C406(4) 0
C407(4) 4.5338159175180198e-01
C408(4) 0
C409(4) 3.1641688075764707e-01
C410(4) 0
C411(4) 0
C412(4) 0
C413(4) 0
C414(4) 0
C415(4) 0
C416(4) 0.5
C417(4) 0
C418(4) 3.3736943429991373e-01
C419(4) 0
C420(4) 0.5
C421(4) 0
C422(4) 0
C423(4) 0
C424(4) 0
C425(4) 0
C426(4) 0
C427(4) 0
C428(4) 0
C429(4) 0
C430(4) 0
C431(4) 0
C432(4) 0
C433(4) 0
C434(4) 0
C435(4) 0
C436(4) 0
C437(4) 0
C438(4) 0
C439(4) 0
C440(4) 0
C441(4) 0
C442(4) 0
C443(4) 0
C444(4) 0
C445(4) 0
C446(4) 0
C447(4) 0
C448(4) 0
C449(4) 0
C450(4) 0
C451(4) 0
C452(4) 0
C453(4) 0
C454(4) 0
C455(4) 0
C456(4) 0
C457(4) 0
C458(4) 0
C459(4) 0
C460(4) 0
C461(4) 0
C462(4) 0
C463(4) 0
C464(4) 0
C465(4) 0
C466(4) 0
C467(4) 0
C468(4) 0
C469(4) 0
C470(4) 0
C471(4) 0
C472(4) 0
C473(4) 0
C474(4) 0
C475(4) 0
C476(4) 0
C477(4) 0
C478(4) 0
C479(4) 0
C480(4) 0
C481(4) 0
C482(4) 0
C483(4) 0
C484(4) 0
C485(4) 0
C486(4) 0
C487(4) 0
C488(4) 7.2538068539644400e-04
C489(4) 3.7430010376677275e-01
C490(4) 2.1351255624504423e-01
C491(4) 3.1880685394108749e-01
C492(4) 0
C493(4) 2.5097425394263223e-01
C494(4) 1.9375475147405080e-01
C495(4) 4.8600711248510298e-01
C496(4) 0
C497(4) 1.0789473684210528e-01
C498(4) 0
C499(4) 0
C500(4) 0
C501(4) 1.5368381569698067e-02
C502(4) 0
C503(4) 7.0981389343782592e-02
C504(4) 2.5883413600135363e-01
C505(4) 3.0048033126985274e-01
C506(4) 0
C507(4) 0
C508(4) 0
C509(4) 0
C510(4) 0
C511(4) 4.8463161843030200e-01
C512(4) 3.9210526315789418e-01
C513(4) 4.2901861065621744e-01
C514(4) 1.7311100875782282e-01
C515(4) 0
C516(4) 0
C517(4) 1.0789473684210581e-01
C518(4) 0
C519(4) 0
C520(4) 0
C521(4) 1.8119314605891251e-01
C522(4) 1.4381257806634451e-01
C523(4) 1.1830874834650813e-01
C524(4) 0
C525(4) 0
C526(4) 0
C527(4) 4.6023394389125463e-02
C528(4) 0
C529(4) 0
C530(4) 0
C531(4) 0
C532(4) 0
C533(4) 0
C534(4) 0
C535(4) 0
C536(4) 0
C537(4) 2.0226929070242475e-01
C538(4) 1.2999161702546325e-01
C539(4) 0
C540(4) 0
C541(4) 0
C542(4) 0
C543(4) 0
C544(4) 0
C545(4) 0
C546(4) 0
C547(4) 0
C548(4) 0
C549(4) 0
C550(4) 0
C551(4) 0
C552(4) 0
C553(4) 0
C554(4) 0
C555(4) 0
C556(4) 0
C557(4) 0
C558(4) 0
C559(4) 0
C560(4) 0
C561(4) 0
C562(4) 0
C563(4) 0
C564(4) 0
C565(4) 0
C566(4) 0
C567(4) 0
C568(4) 0
C569(4) 0
C570(4) 0
C571(4) 0
C572(4) 0
C573(4) 0
C574(4) 0
C575(4) 0
C576(4) 0
C577(4) 0
C578(4) 0
C579(4) 0
C580(4) 0
C581(4) 0
C582(4) 0
C583(4) 0
C584(4) 0
C585(4) 0
C586(4) 0
C587(4) 0
C588(4) 0
C589(4) 0
C590(4) 0
C591(4) 0
C592(4) 0
C593(4) 0
C594(4) 0
C595(4) 0
C596(4) 0
C597(4) 0
C598(4) 0
C599(4) 0
C600(4) 0
C601(4) 0
C602(4) 0
C603(4) 0
C604(4) 0
C605(3) 1
C606(4) 1.1295220994475046e-01
C607(4) 6.0314901189210679e-02
C608(4) 1.2180666736672185e-01
C609(4) 8.1492288802994403e-02
C610(3) 0
C611(4) 0
C612(4) 0
C613(4) 0
C614(4) 0
C615(3) 0
C616(4) 2.9146589929647920e-01
C617(4) 1.7944478460842106e-01
C618(4) 3.1030968545913640e-01
C619(4) 9.1850771119700569e-01
C620(3) 0
C621(4) 0
C622(4) 0
C623(4) 0
C624(4) 0
C625(3) 0
C626(4) 0
C627(4) 0
C628(4) 0
C629(4) 0
C630(3) 0
C631(4) 0
C632(4) 0
C633(4) 0
C634(4) 0
C635(3) 0
C636(4) 0
C637(4) 0
C638(4) 0
C639(4) 0
C640(3) 0
C641(4) 0
C642(4) 0
C643(4) 0
C644(4) 0
C645(3) 0
C646(4) 0
C647(4) 0
C648(4) 0
C649(4) 0
C650(3) 0
C651(4) 5.9558189075877033e-01
C652(4) 7.6024031420236826e-01
C653(4) 5.6788364717414175e-01
C654(4) 0
C655(3) 0
C656(4) 0
C657(4) 0
C658(4) 0
C659(4) 0
C660(3) 0
C661(4) 0
C662(4) 0
C663(4) 0
C664(4) 0
C665(3) 0
C666(4) 0
C667(4) 0
C668(4) 0
C669(4) 0
C670(3) 0
C671(4) 0
C672(4) 0
C673(4) 0
C674(4) 0
C675(3) 0
C676(4) 0
C677(4) 0
C678(4) 0
C679(4) 0
C680(3) 0
C681(4) 0
C682(4) 0
C683(4) 0
C684(4) 0
C685(3) 0
C686(4) 0
C687(4) 0
C688(4) 0
C689(4) 0
C690(3) 0
C691(4) 0
C692(4) 0
C693(4) 0
C694(4) 0
C695(3) 0
C696(4) 0
C697(4) 0
C698(4) 0
C699(4) 0
C700(3) 0
C701(4) 0
C702(4) 0
C703(4) 0
C704(4) 0
C705(3) 0
C706(4) 0
C707(4) 0
C708(4) 0
C709(4) 0
C710(3) 0
C711(4) 0
C712(4) 0
C713(4) 0
C714(4) 0
C715(3) 0
C716(4) 0
C717(4) 0
C718(4) 0
C719(4) 0
C720(3) 0
C721(4) 0
C722(4) 0
C723(4) 0
C724(4) 0
C725(3) 0
C726(2) 0
C727(2) 0
C728(2) 0
C729(2) 0
C730(2) 0
C731(2) 0
C732(2) 0
C733(2) 0
C734(2) 0
C735(2) 0
C736(2) 0
C737(2) 0
C738(2) 0
C739(2) 0
C740(2) 0
C741(2) 0
C742(2) 0
C743(2) 0
C744(2) 0
C745(2) 0
C746(2) 0
C747(2) 0
C748(2) 0
C749(2) 0
C750(2) 0
C751(2) 0
C752(2) 0
C753(2) 0
C754(2) 0
C755(2) 0
C756(2) 0
C757(2) 0
C758(2) 0
C759(2) 0
C760(2) 0
C761(2) 0
C762(2) 0
C763(2) 0
C764(2) 0
C765(2) 0
C766(2) 0
C767(2) 0
C768(2) 0
C769(2) 0
C770(2) 0
C771(2) 0
C772(2) 0
C773(2) 0
C774(2) 0
C775(2) 0
C776(2) 0
C777(2) 0
C778(2) 0
C779(2) 0
C780(2) 0
C781(2) 0
C782(2) 0
C783(2) 0
C784(2) 0
C785(2) 0
C786(2) 0
C787(2) 0
C788(2) 0
C789(2) 0
C790(2) 0
C791(2) 0
C792(2) 0
C793(2) 0
C794(2) 0
C795(2) 0
C796(2) 0
C797(2) 0
C798(2) 0
C799(2) 0
C800(2) 0
C801(2) 0
C802(2) 0
C803(2) 0
C804(2) 0
C805(2) 0
C806(2) 0
C807(2) 0
C808(2) 0
C809(2) 0
C810(2) 0
C811(2) 0
C812(2) 0
C813(2) 0
C814(2) 0
C815(2) 0
C816(2) 0
C817(2) 0
C818(2) 0
C819(2) 0
C820(2) 0
C821(2) 0
C822(2) 0
C823(2) 0
C824(2) 0
C825(2) 0
C826(2) 0
C827(2) 0
C828(2) 0
C829(2) 0
C830(2) 0
C831(2) 0
C832(2) 0
C833(2) 0
C834(2) 0
C835(2) 0
C836(2) 0
C837(2) 0
C838(2) 0
C839(2) 0
C840(2) 0
C841(2) 0
C842(2) 0
C843(2) 0
C844(2) 0
C845(2) 0
C846(2) 0
C847(2) 0
C848(2) 0
C849(2) 0
C850(2) 0
C851(2) 0
C852(2) 0
C853(2) 0
C854(2) 0
C855(2) 0
C856(2) 0
C857(2) 0
C858(2) 0
C859(2) 0
C860(2) 0
C861(2) 0
C862(2) 0
C863(2) 0
C864(2) 0
C865(2) 0
C866(2) 0
C867(2) 0
C868(2) 0
C869(2) 0
C870(2) 0
C871(2) 0
C872(2) 0
C873(2) 0
C874(2) 0
C875(2) 19
C876(2) 0
C877(2) 0
C878(2) 0
C879(2) 0
C880(2) 0
C881(2) 0
C882(2) 0
C883(2) 0
C884(2) 0
C885(2) 0
C886(2) 0
C887(2) 0
C888(2) 0
C889(2) 0
C890(2) 0
C891(2) 0
C892(2) 0
C893(2) 0
C894(2) 0
C895(2) 0
C896(2) 0
C897(2) 0
C898(2) 0
C899(2) 0
C900(2) 0
C901(2) 0
C902(2) 0
C903(2) 0
C904(2) 0
C905(2) 0
C906(2) 0
C907(2) 0
C908(2) 0
C909(2) 0
C910(2) 0
C911(2) 0
C912(2) 0
C913(2) 0
C914(2) 0
C915(2) 0
C916(2) 0
C917(2) 0
C918(2) 0
C919(2) 0
C920(2) 0
C921(2) 0
C922(2) 0
C923(2) 0
C924(2) 0
C925(2) 0
C926(2) 0
C927(2) 0
C928(2) 0
C929(2) 0
C930(2) 0
C931(2) 0
C932(2) 0
C933(2) 0
C934(2) 0
C935(2) 0
C936(2) 0
C937(2) 0
C938(2) 0
C939(2) 0
C940(2) 0
C941(2) 0
C942(2) 0
C943(2) 0
C944(2) 0
C945(2) 0
C946(2) 0
C947(2) 0
C948(2) 0
C949(2) 0
C950(2) 0
C951(2) 0
C952(2) 0
C953(2) 0
C954(2) 0
C955(2) 0
C956(2) 0
C957(2) 0
C958(2) 0
C959(2) 0
C960(2) 0
C961(2) 0
C962(2) 0
C963(2) 0
C964(2) 0
C965(2) 0
C966(2) 0
C967(2) 0
C968(2) 0
C969(2) 0
C970(2) 0
C971(2) 0
C972(2) 0
C973(2) 0
C974(2) 0
C975(2) 0
C976(2) 0
C977(2) 0
C978(2) 0
C979(2) 0
C980(2) 0
C981(2) 0
C982(2) 0
C983(2) 9.4325728106050022e+00
C984(2) 2.5334470455444702e+01
C985(2) 3.9895320849269673e+00
C986(2) 6.6073334424175734e-01
C987(2) 1.0722233897085545e+00
C988(2) 0
C989(2) 0
C990(2) 6.0104679150730336e+00
C991(2) 0
C992(2) 0
C993(2) 0
C994(2) 0
C995(2) 0
C996(2) 8.3392666557582427e+00
C997(2) 11.5
C998(2) 29
C999(2) 0
C1000(2) 0
C1001(2) 0
C1002(2) 0
C1003(2) 0
C1004(2) 0
C1005(2) 0
C1006(2) 0
C1007(2) 0
C1008(2) 0
C1009(2) 0
C1010(2) 0
C1011(2) 0
C1012(2) 0
C1013(2) 0
C1014(2) 0
C1015(2) 0
C1016(2) 0
C1017(2) 0
C1018(2) 0
C1019(2) 0
C1020(2) 0
C1021(2) 0
C1022(2) 0
C1023(2) 0
C1024(2) 69
C1025(2) 0
C1026(2) 0
C1027(2) 0
C1028(2) 0
C1029(2) 0
C1030(2) 0
C1031(2) 0
C1032(2) 1.0427776610291446e+01
C1033(2) 0
C1034(2) 4.3665529544555298e+01
C1035(2) 0
C1036(2) 0
C1037(2) 0
C1038(2) 0
C1039(2) 0
C1040(2) 0
C1041(2) 9
C1042(2) 0
C1043(2) 1.9567427189394998e+01
C1044(2) 0
C1045(2) 10
C1046(2) 0
C1047(2) 0
C1048(2) 0
C1049(2) 0
C1050(2) 0
C1051(2) 0
C1052(2) 0
C1053(2) 0
C1054(2) 0
C1055(2) 0
C1056(2) 0
C1057(2) 0
C1058(2) 0
C1059(2) 0
C1060(2) 0
C1061(2) 0
C1062(2) 0
C1063(2) 0
C1064(2) 0
C1065(2) 0
C1066(2) 0
C1067(2) 0
C1068(2) 0
C1069(2) 0
C1070(2) 0
C1071(2) 0
C1072(2) 0
C1073(2) 0
C1074(2) 0
C1075(2) 0
C1076(2) 0
C1077(2) 0
C1078(2) 0
C1079(2) 0
C1080(2) 0
C1081(2) 0
C1082(2) 0
C1083(2) 0
C1084(2) 0
C1085(2) 0
C1086(2) 0
C1087(2) 0
C1088(2) 0
C1089(2) 0
C1090(2) 0
C1091(2) 0
C1092(2) 0
C1093(2) 0
C1094(2) 0
C1095(2) 0
C1096(2) 0
C1097(2) 0
C1098(2) 0
C1099(2) 0
C1100(2) 0
C1101(2) 0
C1102(2) 0
C1103(2) 0
C1104(2) 0
C1105(2) 0
C1106(2) 0
C1107(2) 0
C1108(2) 0
C1109(2) 0
C1110(2) 0
C1111(2) 0
C1112(2) 0
C1113(2) 1.0082791527010572e-01
C1114(2) 5.6519315668782689e+01
C1115(2) 5.1243013498810619e+00
C1116(2) 7.0137507867039250e+00
C1117(2) 0
C1118(2) 3.4885421298025882e+01
C1119(2) 2.9256967472581671e+01
C1120(2) 1.1664170699642472e+01
C1121(2) 0
C1122(2) 2.0500000000000004e+01
C1123(2) 0
C1124(2) 0
C1125(2) 0
C1126(2) 3.3810439453335750e-01
C1127(2) 0
C1128(2) 9.8664131187857809e+00
C1129(2) 3.9083954536204395e+01
C1130(2) 7.2115279504764658e+00
C1131(2) 0
C1132(2) 0
C1133(2) 0
C1134(2) 0
C1135(2) 0
C1136(2) 1.0661895605466643e+01
C1137(2) 7.4499999999999901e+01
C1138(2) 5.9633586881214221e+01
C1139(2) 2.6139762322431245e+01
C1140(2) 0
C1141(2) 0
C1142(2) 2.0500000000000103e+01
C1143(2) 0
C1144(2) 0
C1145(2) 0
C1146(2) 3.9862492132960754e+00
C1147(2) 2.7324389832605458e+01
C1148(2) 1.6444916020164630e+01
C1149(2) 0
C1150(2) 0
C1151(2) 0
C1152(2) 8.7444449339338384e+00
C1153(2) 0
C1154(2) 0
C1155(2) 0
C1156(2) 0
C1157(2) 0
C1158(2) 0
C1159(2) 0
C1160(2) 0
C1161(2) 0
C1162(2) 3.8431165233460703e+01
C1163(2) 1.8068834766539393e+01
C1164(2) 0
C1165(2) 0
C1166(2) 0
C1167(2) 0
C1168(2) 0
C1169(2) 0
C1170(2) 0
C1171(2) 0
C1172(2) 0
C1173(2) 0
C1174(2) 0
C1175(2) 0
C1176(2) 0
C1177(2) 0
C1178(2) 0
C1179(2) 0
C1180(2) 0
C1181(2) 0
C1182(2) 0
C1183(2) 0
C1184(2) 0
C1185(2) 0
C1186(2) 0
C1187(2) 0
C1188(2) 0
C1189(2) 0
C1190(2) 0
C1191(2) 0
C1192(2) 0
C1193(2) 0
C1194(2) 0
C1195(2) 0
C1196(2) 0
C1197(2) 0
C1198(2) 0
C1199(2) 0
C1200(2) 0
C1201(2) 0
C1202(2) 0
C1203(2) 0
C1204(2) 0
C1205(2) 0
C1206(2) 0
C1207(2) 0
C1208(2) 0
C1209(2) 0
C1210(2) 0
C1211(2) 0
C1212(2) 0
C1213(2) 0
C1214(2) 0
C1215(2) 0
C1216(2) 0
C1217(2) 0
C1218(2) 0
C1219(2) 0
C1220(2) 0
C1221(2) 0
C1222(2) 0
C1223(2) 0
C1224(2) 0
C1225(2) 0
C1226(2) 0
C1227(2) 0
C1228(2) 0
C1229(2) 0
C1230(2) 0
C1231(2) 1.4231978453038558e+01
C1232(2) 9.6503841902737086e-01
C1233(2) 1.5834866757673840e+00
C1234(2) 1.6298457760598881e+00
C1235(2) 0
C1236(2) 0
C1237(2) 0
C1238(2) 0
C1239(2) 0
C1240(2) 0
C1241(2) 3.6724703311356379e+01
C1242(2) 2.8711165537347370e+00
C1243(2) 4.0340259109687731e+00
C1244(2) 1.8370154223940112e+01
C1245(2) 0
C1246(2) 0
C1247(2) 0
C1248(2) 0
C1249(2) 0
C1250(2) 0
C1251(2) 0
C1252(2) 0
C1253(2) 0
C1254(2) 0
C1255(2) 0
C1256(2) 0
C1257(2) 0
C1258(2) 0
C1259(2) 0
C1260(2) 0
C1261(2) 0
C1262(2) 0
C1263(2) 0
C1264(2) 0
C1265(2) 0
C1266(2) 0
C1267(2) 0
C1268(2) 0
C1269(2) 0
C1270(2) 0
C1271(2) 0
C1272(2) 0
C1273(2) 0
C1274(2) 0
C1275(2) 0
C1276(2) 7.5043318235605057e+01
C1277(2) 1.2163845027237892e+01
C1278(2) 7.3824874132638429e+00
C1279(2) 0
C1280(2) 0
C1281(2) 0
C1282(2) 0
C1283(2) 0
C1284(2) 0
C1285(2) 0
C1286(2) 0
C1287(2) 0
C1288(2) 0
C1289(2) 0
C1290(2) 0
C1291(2) 0
C1292(2) 0
C1293(2) 0
C1294(2) 0
C1295(2) 0
C1296(2) 0
C1297(2) 0
C1298(2) 0
C1299(2) 0
C1300(2) 0
C1301(2) 0
C1302(2) 0
C1303(2) 0
C1304(2) 0
C1305(2) 0
C1306(2) 0
C1307(2) 0
C1308(2) 0
C1309(2) 0
C1310(2) 0
C1311(2) 0
C1312(2) 0
C1313(2) 0
C1314(2) 0
C1315(2) 0
C1316(2) 0
C1317(2) 0
C1318(2) 0
C1319(2) 0
C1320(2) 0
C1321(2) 0
C1322(2) 0
C1323(2) 0
C1324(2) 0
C1325(2) 0
C1326(2) 0
C1327(2) 0
C1328(2) 0
C1329(2) 0
C1330(2) 0
C1331(2) 0
C1332(2) 0
C1333(2) 0
C1334(2) 0
C1335(2) 0
C1336(2) 0
C1337(2) 0
C1338(2) 0
C1339(2) 0
C1340(2) 0
C1341(2) 0
C1342(2) 0
C1343(2) 0
C1344(2) 0
C1345(2) 0
C1346(2) 0
C1347(2) 0
C1348(2) 0
C1349(2) 0
C1350(2) 0
C1351(5) 0
C1352(5) 0
C1353(5) 0
C1354(5) 0
C1355(5) 0
C1356(5) 0
C1357(5) 0
C1358(5) 0
C1359(5) 0
C1360(5) 0
C1361(5) 0
C1362(5) 0
C1363(5) 0
C1364(5) 0
C1365(5) 0
C1366(5) 0
C1367(5) 0
C1368(5) 0
C1369(5) 0
C1370(5) 0
C1371(5) 0
C1372(5) 0
C1373(5) 0
C1374(5) 0
C1375(5) 0
C1376(7) 0
C1377(7) 0
C1378(7) 0
C1379(7) 0
C1380(7) 0
C1381(7) 0
C1382(7) 0
C1383(7) 0
C1384(7) 0
C1385(7) 0
C1386(7) 0
C1387(7) 0
C1388(7) 0
C1389(7) 0
C1390(7) 0
C1391(7) 0
C1392(7) 0
C1393(7) 0
C1394(7) 0
C1395(7) 0
C1396(7) 0
C1397(7) 0
C1398(7) 0
C1399(7) 0
C1400(7) 0
C1401(7) 0
C1402(7) 0
C1403(7) 0
C1404(7) 0
C1405(7) 0
C1406(7) 0
C1407(7) 0
C1408(7) 0
C1409(7) 0
C1410(7) 0
C1411(7) 0
C1412(7) 0
C1413(7) 0
C1414(7) 0
C1415(7) 0
C1416(7) 0
C1417(7) 0
C1418(7) 0
C1419(7) 0
C1420(7) 0
C1421(7) 0
C1422(7) 0
C1423(7) 0
C1424(7) 0
C1425(7) 0
C1426(9) 0
C1427(9) 0
C1428(9) 0
C1429(9) 0
C1430(9) 0
C1431(9) 0
C1432(9) 0
C1433(9) 0
C1434(9) 0
C1435(9) 0
C1436(9) 0
C1437(9) 0
C1438(9) 0
C1439(9) 0
C1440(9) 0
C1441(9) 0
C1442(9) 0
C1443(9) 0
C1444(9) 0
C1445(9) 0
C1446(9) 0
C1447(9) 0
C1448(9) 0
C1449(9) 0
C1450(9) 0
C1451(9) 0
C1452(9) 0
C1453(9) 0
C1454(9) 0
C1455(9) 0
C1456(9) 0
C1457(9) 0
C1458(9) 0
C1459(9) 0
C1460(9) 0
C1461(9) 0
C1462(9) 0
C1463(9) 0
C1464(9) 0
C1465(9) 0
C1466(9) 0
C1467(9) 0
C1468(9) 0
C1469(9) 0
C1470(9) 0
C1471(9) 0
C1472(9) 0
C1473(9) 0
C1474(9) 0
C1475(9) 0
C1476(5) 0
C1477(5) 0
C1478(5) 0
C1479(5) 0
C1480(5) 0
C1481(5) 0
C1482(5) 0
C1483(5) 0
C1484(5) 0
C1485(5) 0
C1486(5) 0
C1487(5) 0
C1488(5) 0
C1489(5) 0
C1490(5) 0
C1491(5) 0
C1492(5) 0
C1493(5) 0
C1494(5) 0
C1495(5) 0
C1496(5) 0
C1497(5) 0
C1498(5) 0
C1499(5) 0
C1500(5) 19
C1501(7) 0
C1502(7) 0
C1503(7) 0
C1504(7) 0
C1505(7) 0
C1506(7) 0
C1507(7) 0
C1508(7) 0
C1509(7) 0
C1510(7) 0
C1511(7) 0
C1512(7) 0
C1513(7) 0
C1514(7) 0
C1515(7) 0
C1516(7) 0
C1517(7) 0
C1518(7) 0
C1519(7) 0
C1520(7) 0
C1521(7) 0
C1522(7) 0
C1523(7) 0
C1524(7) 0
C1525(7) 0
C1526(7) 0
C1527(7) 0
C1528(7) 0
C1529(7) 0
C1530(7) 0
C1531(7) 0
C1532(7) 0
C1533(7) 0
C1534(7) 0
C1535(7) 0
C1536(7) 0
C1537(7) 0
C1538(7) 0
C1539(7) 0
C1540(7) 0
C1541(7) 0
C1542(7) 0
C1543(7) 0
C1544(7) 0
C1545(7) 0
C1546(7) 0
C1547(7) 0
C1548(7) 0
C1549(7) 0
C1550(7) 0
C1551(9) 0
C1552(9) 0
C1553(9) 0
C1554(9) 0
C1555(9) 0
C1556(9) 0
C1557(9) 0
C1558(9) 0
C1559(9) 0
C1560(9) 0
C1561(9) 0
C1562(9) 0
C1563(9) 0
C1564(9) 0
C1565(9) 0
C1566(9) 0
C1567(9) 0
C1568(9) 0
C1569(9) 0
C1570(9) 0
C1571(9) 0
C1572(9) 0
C1573(9) 0
C1574(9) 0
C1575(9) 0
C1576(9) 0
C1577(9) 0
C1578(9) 0
C1579(9) 0
C1580(9) 0
C1581(9) 0
C1582(9) 0
C1583(9) 0
C1584(9) 0
C1585(9) 0
C1586(9) 0
C1587(9) 0
C1588(9) 0
C1589(9) 0
C1590(9) 0
C1591(9) 0
C1592(9) 0
C1593(9) 0
C1594(9) 0
C1595(9) 0
C1596(9) 0
C1597(9) 0
C1598(9) 0
C1599(9) 0
C1600(9) 0
C1601(5) 0
C1602(5) 0
C1603(5) 0
C1604(5) 0
C1605(5) 0
C1606(5) 0
C1607(5) 0
C1608(5) 0
C1609(5) 0
C1610(5) 0
C1611(5) 0
C1612(5) 0
C1613(5) 0
C1614(5) 0
C1615(5) 0
C1616(5) 0
C1617(5) 0
C1618(5) 0
C1619(5) 0
C1620(5) 0
C1621(5) 0
C1622(5) 23
C1623(5) 58
C1624(5) 0
C1625(5) 0
C1626(7) 0
C1627(7) 0
C1628(7) 0
C1629(7) 0
C1630(7) 0
C1631(7) 0
C1632(7) 0
C1633(7) 0
C1634(7) 0
C1635(7) 0
C1636(7) 0
C1637(7) 0
C1638(7) 0
C1639(7) 0
C1640(7) 0
C1641(7) 0
C1642(7) 0
C1643(7) 0
C1644(7) 0
C1645(7) 0
C1646(7) 0
C1647(7) 0
C1648(7) 0
C1649(7) 138
C1650(7) 0
C1651(7) 0
C1652(7) 0
C1653(7) 0
C1654(7) 0
C1655(7) 0
C1656(7) 0
C1657(7) 0
C1658(7) 0
C1659(7) 0
C1660(7) 0
C1661(7) 0
C1662(7) 0
C1663(7) 0
C1664(7) 0
C1665(7) 0
C1666(7) 18
C1667(7) 0
C1668(7) 0
C1669(7) 0
C1670(7) 20
C1671(7) 0
C1672(7) 0
C1673(7) 0
C1674(7) 0
C1675(7) 0
C1676(9) 0
C1677(9) 0
C1678(9) 0
C1679(9) 0
C1680(9) 0
C1681(9) 0
C1682(9) 0
C1683(9) 0
C1684(9) 0
C1685(9) 0
C1686(9) 0
C1687(9) 0
C1688(9) 0
C1689(9) 0
C1690(9) 0
C1691(9) 0
C1692(9) 0
C1693(9) 0
C1694(9) 0
C1695(9) 0
C1696(9) 0
C1697(9) 0
C1698(9) 0
C1699(9) 0
C1700(9) 0
C1701(9) 0
C1702(9) 0
C1703(9) 0
C1704(9) 0
C1705(9) 0
C1706(9) 0
C1707(9) 0
C1708(9) 0
C1709(9) 0
C1710(9) 0
C1711(9) 0
C1712(9) 0
C1713(9) 0
C1714(9) 0
C1715(9) 0
C1716(9) 0
C1717(9) 0
C1718(9) 0
C1719(9) 0
C1720(9) 0
C1721(9) 0
C1722(9) 0
C1723(9) 0
C1724(9) 0
C1725(9) 0
C1726(5) 0
C1727(5) 0
C1728(5) 0
C1729(5) 0
C1730(5) 0
C1731(5) 0
C1732(5) 0
C1733(5) 0
C1734(5) 0
C1735(5) 0
C1736(5) 0
C1737(5) 0
C1738(5) 0
C1739(5) 0
C1740(5) 0
C1741(5) 0
C1742(5) 0
C1743(5) 0
C1744(5) 2.0552566282728705e+01
C1745(5) 9.5769440990470684e+00
C1746(5) 0
C1747(5) 0
C1748(5) 0
C1749(5) 0
C1750(5) 0
C1751(7) 6.7620878906671489e-01
C1752(7) 0
C1753(7) 1.9732826237571558e+01
C1754(7) 7.8167909072408804e+01
C1755(7) 1.4423055900952932e+01
C1756(7) 0
C1757(7) 0
C1758(7) 0
C1759(7) 0
C1760(7) 0
C1761(7) 2.1323791210933287e+01
C1762(7) 1.4899999999999980e+02
C1763(7) 1.1926717376242844e+02
C1764(7) 5.2279524644862491e+01
C1765(7) 0
C1766(7) 0
C1767(7) 4.1000000000000206e+01
C1768(7) 0
C1769(7) 0
C1770(7) 0
C1771(7) 0
C1772(7) 0
C1773(7) 0
C1774(7) 0
C1775(7) 0
C1776(7) 0
C1777(7) 0
C1778(7) 0
C1779(7) 0
C1780(7) 0
C1781(7) 0
C1782(7) 0
C1783(7) 0
C1784(7) 0
C1785(7) 0
C1786(7) 0
C1787(7) 0
C1788(7) 0
C1789(7) 0
C1790(7) 0
C1791(7) 0
C1792(7) 0
C1793(7) 0
C1794(7) 0
C1795(7) 0
C1796(7) 0
C1797(7) 0
C1798(7) 0
C1799(7) 0
C1800(7) 0
C1801(9) 0
C1802(9) 0
C1803(9) 0
C1804(9) 0
C1805(9) 0
C1806(9) 0
C1807(9) 0
C1808(9) 0
C1809(9) 0
C1810(9) 0
C1811(9) 0
C1812(9) 0
C1813(9) 0
C1814(9) 0
C1815(9) 0
C1816(9) 0
C1817(9) 0
C1818(9) 0
C1819(9) 0
C1820(9) 0
C1821(9) 0
C1822(9) 0
C1823(9) 0
C1824(9) 0
C1825(9) 0
C1826(9) 0
C1827(9) 0
C1828(9) 0
C1829(9) 0
C1830(9) 0
C1831(9) 0
C1832(9) 0
C1833(9) 0
C1834(9) 0
C1835(9) 0
C1836(9) 0
C1837(9) 0
C1838(9) 0
C1839(9) 0
C1840(9) 0
C1841(9) 0
C1842(9) 0
C1843(9) 0
C1844(9) 0
C1845(9) 0
C1846(9) 0
C1847(9) 0
C1848(9) 0
C1849(9) 0
C1850(9) 0
C1851(5) 0
C1852(5) 0
C1853(5) 0
C1854(5) 0
C1855(5) 0
C1856(5) 2.8463956906077115e+01
C1857(5) 1.9300768380547417e+00
C1858(5) 3.1669733515347680e+00
C1859(5) 3.2596915521197758e+00
C1860(5) 0
C1861(5) 0
C1862(5) 0
C1863(5) 0
C1864(5) 0
C1865(5) 0
C1866(5) 3.7191639730182231e+01
C1867(5) 0
C1868(5) 8.0680518219375461e+00
C1869(5) 1.6740308447880224e+01
C1870(5) 0
C1871(5) 0
C1872(5) 0
C1873(5) 0
C1874(5) 0
C1875(5) 0
C1876(7) 0
C1877(7) 0
C1878(7) 0
C1879(7) 0
C1880(7) 0
C1881(7) 0
C1882(7) 0
C1883(7) 0
C1884(7) 0
C1885(7) 0
C1886(7) 0
C1887(7) 0
C1888(7) 0
C1889(7) 0
C1890(7) 0
C1891(7) 0
C1892(7) 0
C1893(7) 0
C1894(7) 0
C1895(7) 0
C1896(7) 0
C1897(7) 0
C1898(7) 0
C1899(7) 0
C1900(7) 0
C1901(7) 6.0344403363740653e+01
C1902(7) 1.4069923161945258e+01
C1903(7) 1.7649748265276859e+00
C1904(7) 0
C1905(7) 0
C1906(7) 0
C1907(7) 0
C1908(7) 0
C1909(7) 0
C1910(7) 0
C1911(7) 0
C1912(7) 0
C1913(7) 0
C1914(7) 0
C1915(7) 0
C1916(7) 0
C1917(7) 0
C1918(7) 0
C1919(7) 0
C1920(7) 0
C1921(7) 0
C1922(7) 0
C1923(7) 0
C1924(7) 0
C1925(7) 0
C1926(9) 0
C1927(9) 0
C1928(9) 0
C1929(9) 0
C1930(9) 0
C1931(9) 0
C1932(9) 0
C1933(9) 0
C1934(9) 0
C1935(9) 0
C1936(9) 0
C1937(9) 0
C1938(9) 0
C1939(9) 0
C1940(9) 0
C1941(9) 0
C1942(9) 0
C1943(9) 0
C1944(9) 0
C1945(9) 0
C1946(9) 0
C1947(9) 0
C1948(9) 0
C1949(9) 0
C1950(9) 0
C1951(9) 0
C1952(9) 0
C1953(9) 0
C1954(9) 0
C1955(9) 0
C1956(9) 0
C1957(9) 0
C1958(9) 0
C1959(9) 0
C1960(9) 0
C1961(9) 0
C1962(9) 0
C1963(9) 0
C1964(9) 0
C1965(9) 0
C1966(9) 0
C1967(9) 0
C1968(9) 0
C1969(9) 0
C1970(9) 0
C1971(9) 0
C1972(9) 0
C1973(9) 0
C1974(9) 0
C1975(9) 0
C1976(5) 0
C1977(5) 0
C1978(5) 0
C1979(5) 0
C1980(5) 0
C1981(5) 0
C1982(5) 0
C1983(5) 0
C1984(5) 0
C1985(5) 0
C1986(5) 0
C1987(5) 0
C1988(5) 0
C1989(5) 0
C1990(5) 0
C1991(5) 0
C1992(5) 0
C1993(5) 0
C1994(5) 0
C1995(5) 0
C1996(5) 0
C1997(5) 0
C1998(5) 0
C1999(5) 0
C2000(5) 0
C2001(7) 0
C2002(7) 0
C2003(7) 0
C2004(7) 0
C2005(7) 0
C2006(7) 0
C2007(7) 0
C2008(7) 0
C2009(7) 0
C2010(7) 0
C2011(7) 0
C2012(7) 0
C2013(7) 0
C2014(7) 0
C2015(7) 0
C2016(7) 0
C2017(7) 0
C2018(7) 0
C2019(7) 0
C2020(7) 0
C2021(7) 0
C2022(7) 0
C2023(7) 0
C2024(7) 0
C2025(7) 0
C2026(7) 0
C2027(7) 0
C2028(7) 0
C2029(7) 0
C2030(7) 0
C2031(7) 0
C2032(7) 0
C2033(7) 0
C2034(7) 0
C2035(7) 0
C2036(7) 0
C2037(7) 0
C2038(7) 0
C2039(7) 0
C2040(7) 0
C2041(7) 0
C2042(7) 0
C2043(7) 0
C2044(7) 0
C2045(7) 0
C2046(7) 0
C2047(7) 0
C2048(7) 0
C2049(7) 0
C2050(7) 0
C2051(9) 0
C2052(9) 0
C2053(9) 0
C2054(9) 0
C2055(9) 0
C2056(9) 0
C2057(9) 0
C2058(9) 0
C2059(9) 0
C2060(9) 0
C2061(9) 0
C2062(9) 0
C2063(9) 0
C2064(9) 0
C2065(9) 0
C2066(9) 0
C2067(9) 0
C2068(9) 0
C2069(9) 0
C2070(9) 0
C2071(9) 0
C2072(9) 0
C2073(9) 0
C2074(9) 0
C2075(9) 0
C2076(9) 0
C2077(9) 0
C2078(9) 0
C2079(9) 0
C2080(9) 0
C2081(9) 0
C2082(9) 0
C2083(9) 0
C2084(9) 0
C2085(9) 0
C2086(9) 0
C2087(9) 0
C2088(9) 0
C2089(9) 0
C2090(9) 0
C2091(9) 0
C2092(9) 0
C2093(9) 0
C2094(9) 0
C2095(9) 0
C2096(9) 0
C2097(9) 0
C2098(9) 0
C2099(9) 0
C2100(9) 0
C2101(5) 0
C2102(5) 0
C2103(5) 0
C2104(5) 0
C2105(5) 0
C2106(5) 0
C2107(5) 0
C2108(5) 0
C2109(5) 0
C2110(5) 0
C2111(5) 0
C2112(5) 0
C2113(5) 0
C2114(5) 0
C2115(5) 0
C2116(5) 0
C2117(5) 0
C2118(5) 0
C2119(5) 0
C2120(5) 0
C2121(5) 0
C2122(5) 0
C2123(5) 0
C2124(5) 0
C2125(5) 19
C2126(7) 0
C2127(7) 0
C2128(7) 0
C2129(7) 0
C2130(7) 0
C2131(7) 0
C2132(7) 0
C2133(7) 0
C2134(7) 0
C2135(7) 0
C2136(7) 0
C2137(7) 0
C2138(7) 0
C2139(7) 0
C2140(7) 0
C2141(7) 0
C2142(7) 0
C2143(7) 0
C2144(7) 0
C2145(7) 0
C2146(7) 0
C2147(7) 0
C2148(7) 0
C2149(7) 0
C2150(7) 0
C2151(7) 0
C2152(7) 0
C2153(7) 0
C2154(7) 0
C2155(7) 0
C2156(7) 0
C2157(7) 0
C2158(7) 0
C2159(7) 0
C2160(7) 0
C2161(7) 0
C2162(7) 0
C2163(7) 0
C2164(7) 0
C2165(7) 0
C2166(7) 0
C2167(7) 0
C2168(7) 0
C2169(7) 0
C2170(7) 0
C2171(7) 0
C2172(7) 0
C2173(7) 0
C2174(7) 0
C2175(7) 0
C2176(9) 0
C2177(9) 0
C2178(9) 0
C2179(9) 0
C2180(9) 0
C2181(9) 0
C2182(9) 0
C2183(9) 0
C2184(9) 0
C2185(9) 0
C2186(9) 0
C2187(9) 0
C2188(9) 0
C2189(9) 0
C2190(9) 0
C2191(9) 0
C2192(9) 0
C2193(9) 0
C2194(9) 0
C2195(9) 0
C2196(9) 0
C2197(9) 0
C2198(9) 0
C2199(9) 0
C2200(9) 0
C2201(9) 0
C2202(9) 0
C2203(9) 0
C2204(9) 0
C2205(9) 0
C2206(9) 0
C2207(9) 0
C2208(9) 0
C2209(9) 0
C2210(9) 0
C2211(9) 0
C2212(9) 0
C2213(9) 0
C2214(9) 0
C2215(9) 0
C2216(9) 0
C2217(9) 0
C2218(9) 0
C2219(9) 0
C2220(9) 0
C2221(9) 0
C2222(9) 0
C2223(9) 0
C2224(9) 0
C2225(9) 0
C2226(5) 0
C2227(5) 0
C2228(5) 0
C2229(5) 0
C2230(5) 0
C2231(5) 0
C2232(5) 0
C2233(5) 1.8865145621210004e+01
C2234(5) 5.0668940910889404e+01
C2235(5) 7.9790641698539337e+00
C2236(5) 1.3214666884835147e+00
C2237(5) 2.1444467794171089e+00
C2238(5) 0
C2239(5) 0
C2240(5) 1.2020935830146065e+01
C2241(5) 0
C2242(5) 0
C2243(5) 0
C2244(5) 0
C2245(5) 0
C2246(5) 1.6678533311516485e+01
C2247(5) 0
C2248(5) 0
C2249(5) 0
C2250(5) 0
C2251(7) 0
C2252(7) 0
C2253(7) 0
C2254(7) 0
C2255(7) 0
C2256(7) 0
C2257(7) 0
C2258(7) 0
C2259(7) 0
C2260(7) 0
C2261(7) 0
C2262(7) 0
C2263(7) 0
C2264(7) 0
C2265(7) 0
C2266(7) 0
C2267(7) 0
C2268(7) 0
C2269(7) 0
C2270(7) 0
C2271(7) 0
C2272(7) 0
C2273(7) 0
C2274(7) 0
C2275(7) 0
C2276(7) 0
C2277(7) 0
C2278(7) 0
C2279(7) 0
C2280(7) 0
C2281(7) 0
C2282(7) 2.0855553220582891e+01
C2283(7) 0
C2284(7) 8.7331059089110596e+01
C2285(7) 0
C2286(7) 0
C2287(7) 0
C2288(7) 0
C2289(7) 0
C2290(7) 0
C2291(7) 0
C2292(7) 0
C2293(7) 3.9134854378789996e+01
C2294(7) 0
C2295(7) 0
C2296(7) 0
C2297(7) 0
C2298(7) 0
C2299(7) 0
C2300(7) 0
C2301(9) 0
C2302(9) 0
C2303(9) 0
C2304(9) 0
C2305(9) 0
C2306(9) 0
C2307(9) 0
C2308(9) 0
C2309(9) 0
C2310(9) 0
C2311(9) 0
C2312(9) 0
C2313(9) 0
C2314(9) 0
C2315(9) 0
C2316(9) 0
C2317(9) 0
C2318(9) 0
C2319(9) 0
C2320(9) 0
C2321(9) 0
C2322(9) 0
C2323(9) 0
C2324(9) 0
C2325(9) 0
C2326(9) 0
C2327(9) 0
C2328(9) 0
C2329(9) 0
C2330(9) 0
C2331(9) 0
C2332(9) 0
C2333(9) 0
C2334(9) 0
C2335(9) 0
C2336(9) 0
C2337(9) 0
C2338(9) 0
C2339(9) 0
C2340(9) 0
C2341(9) 0
C2342(9) 0
C2343(9) 0
C2344(9) 0
C2345(9) 0
C2346(9) 0
C2347(9) 0
C2348(9) 0
C2349(9) 0
C2350(9) 0
C2351(5) 0
C2352(5) 0
C2353(5) 0
C2354(5) 0
C2355(5) 0
C2356(5) 0
C2357(5) 0
C2358(5) 0
C2359(5) 0
C2360(5) 0
C2361(5) 0
C2362(5) 0
C2363(5) 2.0165583054021141e-01
C2364(5) 1.1303863133756536e+02
C2365(5) 1.0248602699762124e+01
C2366(5) 1.4027501573407850e+01
C2367(5) 0
C2368(5) 6.9770842596051750e+01
C2369(5) 3.7961368662434637e+01
C2370(5) 1.3751397300237876e+01
C2371(5) 0
C2372(5) 4.1000000000000007e+01
C2373(5) 0
C2374(5) 0
C2375(5) 0
C2376(7) 0
C2377(7) 0
C2378(7) 0
C2379(7) 0
C2380(7) 0
C2381(7) 0
C2382(7) 0
C2383(7) 0
C2384(7) 0
C2385(7) 0
C2386(7) 0
C2387(7) 0
C2388(7) 0
C2389(7) 0
C2390(7) 0
C2391(7) 0
C2392(7) 0
C2393(7) 0
C2394(7) 0
C2395(7) 0
C2396(7) 7.9724984265921499e+00
C2397(7) 5.4648779665210917e+01
C2398(7) 3.2889832040329260e+01
C2399(7) 0
C2400(7) 0
C2401(7) 0
C2402(7) 1.7488889867867677e+01
C2403(7) 0
C2404(7) 0
C2405(7) 0
C2406(7) 0
C2407(7) 0
C2408(7) 0
C2409(7) 0
C2410(7) 0
C2411(7) 0
C2412(7) 7.6862330466921406e+01
C2413(7) 3.6137669533078778e+01
C2414(7) 0
C2415(7) 0
C2416(7) 0
C2417(7) 0
C2418(7) 0
C2419(7) 0
C2420(7) 0
C2421(7) 0
C2422(7) 0
C2423(7) 0
C2424(7) 0
C2425(7) 0
C2426(9) 0
C2427(9) 0
C2428(9) 0
C2429(9) 0
C2430(9) 0
C2431(9) 0
C2432(9) 0
C2433(9) 0
C2434(9) 0
C2435(9) 0
C2436(9) 0
C2437(9) 0
C2438(9) 0
C2439(9) 0
C2440(9) 0
C2441(9) 0
C2442(9) 0
C2443(9) 0
C2444(9) 0
C2445(9) 0
C2446(9) 0
C2447(9) 0
C2448(9) 0
C2449(9) 0
C2450(9) 0
C2451(9) 0
C2452(9) 0
C2453(9) 0
C2454(9) 0
C2455(9) 0
C2456(9) 0
C2457(9) 0
C2458(9) 0
C2459(9) 0
C2460(9) 0
C2461(9) 0
C2462(9) 0
C2463(9) 0
C2464(9) 0
C2465(9) 0
C2466(9) 0
C2467(9) 0
C2468(9) 0
C2469(9) 0
C2470(9) 0
C2471(9) 0
C2472(9) 0
C2473(9) 0
C2474(9) 0
C2475(9) 0
C2476(5) 0
C2477(5) 0
C2478(5) 0
C2479(5) 0
C2480(5) 0
C2481(5) 0
C2482(5) 0
C2483(5) 0
C2484(5) 0
C2485(5) 0
C2486(5) 0
C2487(5) 0
C2488(5) 0
C2489(5) 0
C2490(5) 0
C2491(5) 3.6257766892530526e+01
C2492(5) 5.7422331074694739e+00
C2493(5) 0
C2494(5) 20
C2495(5) 0
C2496(5) 0
C2497(5) 0
C2498(5) 0
C2499(5) 0
C2500(5) 0
C2501(7) 0
C2502(7) 0
C2503(7) 0
C2504(7) 0
C2505(7) 0
C2506(7) 0
C2507(7) 0
C2508(7) 0
C2509(7) 0
C2510(7) 0
C2511(7) 0
C2512(7) 0
C2513(7) 0
C2514(7) 0
C2515(7) 0
C2516(7) 0
C2517(7) 0
C2518(7) 0
C2519(7) 0
C2520(7) 0
C2521(7) 0
C2522(7) 0
C2523(7) 0
C2524(7) 0
C2525(7) 0
C2526(7) 8.9742233107469474e+01
C2527(7) 1.0257766892530526e+01
C2528(7) 13
C2529(7) 0
C2530(7) 0
C2531(7) 0
C2532(7) 0
C2533(7) 0
C2534(7) 0
C2535(7) 0
C2536(7) 0
C2537(7) 0
C2538(7) 0
C2539(7) 0
C2540(7) 0
C2541(7) 0
C2542(7) 0
C2543(7) 0
C2544(7) 0
C2545(7) 0
C2546(7) 0
C2547(7) 0
C2548(7) 0
C2549(7) 0
C2550(7) 0
C2551(9) 0
C2552(9) 0
C2553(9) 0
C2554(9) 0
C2555(9) 0
C2556(9) 0
C2557(9) 0
C2558(9) 0
C2559(9) 0
C2560(9) 0
C2561(9) 0
C2562(9) 0
C2563(9) 0
C2564(9) 0
C2565(9) 0
C2566(9) 0
C2567(9) 0
C2568(9) 0
C2569(9) 0
C2570(9) 0
C2571(9) 0
C2572(9) 0
C2573(9) 0
C2574(9) 0
C2575(9) 0
C2576(9) 0
C2577(9) 0
C2578(9) 0
C2579(9) 0
C2580(9) 0
C2581(9) 0
C2582(9) 0
C2583(9) 0
C2584(9) 0
C2585(9) 0
C2586(9) 0
C2587(9) 0
C2588(9) 0
C2589(9) 0
C2590(9) 0
C2591(9) 0
C2592(9) 0
C2593(9) 0
C2594(9) 0
C2595(9) 0
C2596(9) 0
C2597(9) 0
C2598(9) 0
C2599(9) 0
C2600(9) 0
C2601(1) 0
C2602(1) 0
C2603(1) 0
C2604(1) 0
C2605(1) 0
C2606(1) 0
C2607(1) 0
C2608(1) 0
C2609(1) 0
C2610(1) 0
C2611(1) 0
C2612(1) 0
C2613(1) 0
C2614(1) 0
C2615(1) 0
C2616(1) 2.1243524480911213e+02
C2617(1) 0
C2618(1) 0
C2619(1) 1.2999999999999991e+02
C2620(1) 0
C2621(1) 2.1243524480911213e+02
C2622(1) 0
C2623(1) 0
C2624(1) 3.4589650676106736e+01
C2625(1) 0
C2626(3) 0
C2627(3) 0
C2628(3) 0
C2629(3) 0
C2630(3) 0
C2631(3) 0
C2632(3) 0
C2633(3) 0
C2634(3) 0
C2635(3) 0
C2636(3) 0
C2637(3) 0
C2638(3) 0
C2639(3) 0
C2640(3) 0
C2641(3) 4.2487048961822427e+02
C2642(3) 0
C2643(3) 0
C2644(3) 1.8299999999999983e+02
C2645(3) 0
C2646(2) 4.2487048961822427e+02
C2647(2) 0
C2648(2) 0
C2649(2) 6.9179301352213471e+01
C2650(2) 0
C2651(3) 0
C2652(3) 0
C2653(3) 0
C2654(3) 0
C2655(3) 0
C2656(3) 0
C2657(3) 0
C2658(3) 0
C2659(3) 0
C2660(3) 0
C2661(3) 0
C2662(3) 0
C2663(3) 0
C2664(3) 0
C2665(3) 0
C2666(3) 0
C2667(3) 0
C2668(3) 0
C2669(3) 77
C2670(3) 0
C2671(2) 0
C2672(2) 0
C2673(2) 0
C2674(2) 0
C2675(2) 0
C2676(1) 0
C2677(1) 0
C2678(1) 0
C2679(1) 0
C2680(1) 0
C2681(1) 0
C2682(1) 0
C2683(1) 0
C2684(1) 0
C2685(1) 9.9999999999999556e-01
C2686(1) 0
C2687(1) 2.0000000000000004e+00
C2688(1) 1
C2689(1) 0
C2690(1) 4
C2691(1) 0.5
C2692(1) 1
C2693(1) 0.5
C2694(1) 3
C2695(1) 1
C2696(1) 0
C2697(1) 1
C2698(1) 0
C2699(1) 4
C2700(1) 0
C2701(6) 0
C2702(6) 0
C2703(6) 0
C2704(6) 0
C2705(6) 0
C2706(6) 0
C2707(6) 0
C2708(6) 0
C2709(6) 0
C2710(6) 9.9999999999999556e-01
C2711(6) 0
C2712(6) 2
C2713(6) 1
C2714(6) 0
C2715(6) 4
C2716(6) 1
C2717(6) 1
C2718(6) 0
C2719(6) 3
C2720(6) 1
C2721(6) 0
C2722(6) 1
C2723(6) 0
C2724(6) 4
C2725(6) 0
C2726(6) 0
C2727(6) 0
C2728(6) 0
C2729(6) 0
C2730(6) 0
C2731(6) 0
C2732(6) 0
C2733(6) 0
C2734(6) 0
C2735(6) 9.9999999999999556e-01
C2736(6) 0
C2737(6) 2.0000000000000009e+00
C2738(6) 1
C2739(6) 0
C2740(6) 4
C2741(6) 0
C2742(6) 1
C2743(6) 1
C2744(6) 3
C2745(6) 1
C2746(6) 0
C2747(6) 1
C2748(6) 0
C2749(6) 4
C2750(6) 0
B2751(1) 0
B2752(1) 0
B2753(1) 0
B2754(1) 0
B2755(1) 0
B2756(1) 0
B2757(1) 0
B2758(1) 0
B2759(1) 0
B2760(1) 9.9999999999999556e-01
B2761(1) 0
B2762(1) 1
B2763(1) 1
B2764(1) 0
B2765(1) 0
B2766(1) 1
B2767(1) 0
B2768(1) 0
B2769(1) 0
B2770(1) 1
B2771(1) 0
B2772(1) 1
B2773(1) 0
B2774(1) 0
B2775(1) 0
B2776(1) 0
B2777(1) 0
B2778(1) 0
B2779(1) 0
B2780(1) 0
B2781(1) 0
B2782(1) 0
B2783(1) 0
B2784(1) 0
B2785(1) 9.9999999999999556e-01
B2786(1) 0
B2787(1) 1.0000000000000009e+00
B2788(1) 1
B2789(1) 0
B2790(1) 0
B2791(1) 0
B2792(1) 0
B2793(1) 1
B2794(1) 0
B2795(1) 1
B2796(1) 0
B2797(1) 1
B2798(1) 0
B2799(1) 0
B2800(1) 0
B2801(0) 0
B2802(0) 0
B2803(0) 0
B2804(0) 0
B2805(0) 0
B2806(0) 0
B2807(0) 0
B2808(0) 0
B2809(0) 0
B2810(0) 0
B2811(0) 0
B2812(0) 0
B2813(0) 0
B2814(0) 0
B2815(0) 0
B2816(0) 0
B2817(0) 0
B2818(0) 0
B2819(0) 0
B2820(0) 0
B2821(0) 0
B2822(0) 0
B2823(0) 0
B2824(0) 0
B2825(0) 0
B2826(0) 0
B2827(0) 0
B2828(0) 0
B2829(0) 0
B2830(0) 0
B2831(0) 0
B2832(0) 0
B2833(0) 0
B2834(0) 0
B2835(0) 0
B2836(0) 0
B2837(0) 0
B2838(0) 0
B2839(0) 0
B2840(0) 0
B2841(0) 0
B2842(0) 0
B2843(0) 0
B2844(0) 0
B2845(0) 0
B2846(0) 0
B2847(0) 0
B2848(0) 0
B2849(0) 0
B2850(0) 0
C2851(3) 0
C2852(4) 0
C2853(3) 2.9999999999999867e+00
C2854(4) 2.9999999999999867e+00
C2855(3) 20
C2856(4) 1.7000000000000014e+01
C2857(3) 20
C2858(3) 0
C2859(3) 1.7000000000000014e+01
C2860(2) 0
